Normalized Data/p02_19_normalized_splitx10_0.vrp
NAME:p02_19_NORMALIZED_splitx10_
BEST_KNOWN: 0
COMMENT: 0
DIMENSION: 270
CAPACITY: 1000
EDGE_WEIGHT_FORMAT: FUNCTION
EDGE_WEIGHT_TYPE: EXACT_2D
NODE_COORD_SECTION
1 0.00000 0.00000
2 -37 -20
3 -37 -20
4 -37 -20
5 -40 -47
6 -40 -47
7 22 44
8 22 44
9 22 44
10 22 44
11 22 44
12 0 -5
13 0 -5
14 0 -5
15 0 -5
16 -4 34
17 -4 34
18 -4 34
19 -4 34
20 -4 34
21 16 22
22 16 22
23 16 22
24 16 22
25 -21 47
26 -21 47
27 -21 47
28 -21 47
29 -5 -26
30 25 -44
31 7 -27
32 7 -27
33 7 -27
34 7 -27
35 7 -27
36 -8 16
37 -8 16
38 -8 16
39 -4 43
40 -4 43
41 -35 -40
42 -35 -40
43 -35 -40
44 -35 -40
45 -35 -40
46 -23 -39
47 -23 -39
48 -23 -39
49 -23 -39
50 -23 -39
51 -11 -37
52 -11 -37
53 -11 -37
54 -3 43
55 -3 43
56 -3 43
57 24 20
58 24 20
59 0 -48
60 0 -48
61 -37 -43
62 -37 -43
63 -37 -43
64 -37 -43
65 25 29
66 25 29
67 16 -46
68 16 -46
69 0 -48
70 0 -48
71 0 -48
72 7 47
73 7 47
74 7 47
75 -34 -29
76 -34 -29
77 -34 -29
78 -34 -29
79 -34 -29
80 17 -42
81 17 -42
82 17 -42
83 24 45
84 24 45
85 24 45
86 24 45
87 24 45
88 24 45
89 6 -35
90 6 -35
91 6 -35
92 6 -35
93 6 -35
94 -7 31
95 -7 31
96 -7 31
97 -21 32
98 -26 -19
99 -26 -19
100 -26 -19
101 20 22
102 20 22
103 -1 36
104 -1 36
105 -1 36
106 -1 36
107 -1 36
108 -14 -34
109 -14 -34
110 -14 -34
111 -14 -34
112 -14 -34
113 50 -42
114 50 -42
115 50 -42
116 50 -42
117 50 -42
118 -47 40
119 -47 40
120 -47 40
121 -47 40
122 -47 40
123 -47 40
124 -43 24
125 -43 24
126 -43 24
127 2 -33
128 2 -33
129 2 -33
130 9 -45
131 9 -45
132 9 -45
133 -47 42
134 -47 42
135 -13 -9
136 -13 -9
137 -13 -9
138 -13 -9
139 -13 -9
140 -13 -9
141 -11 -45
142 -38 4
143 -38 4
144 -38 4
145 -38 4
146 -38 4
147 9 -29
148 9 -29
149 -12 -6
150 -12 -6
151 -12 -6
152 20 -35
153 20 -35
154 20 -35
155 20 -35
156 -48 -19
157 -48 -19
158 -48 -19
159 -48 -19
160 -48 -19
161 -44 -29
162 -44 -29
163 -44 -29
164 -44 -29
165 24 26
166 24 26
167 24 26
168 24 26
169 24 26
170 -26 4
171 -26 4
172 -26 4
173 -26 4
174 26 0
175 26 0
176 26 0
177 -1 -31
178 -1 -31
179 -1 -31
180 44 49
181 44 49
182 44 49
183 44 49
184 44 49
185 44 49
186 49 -49
187 49 -49
188 49 -49
189 49 -49
190 3 46
191 3 46
192 3 46
193 13 19
194 13 19
195 -34 -49
196 -34 -49
197 -34 -49
198 -34 -49
199 40 -32
200 40 -32
201 -30 -7
202 -30 -7
203 -30 -7
204 -30 -7
205 -30 -7
206 -30 -7
207 -30 -7
208 -41 -42
209 -41 -42
210 -41 -42
211 -41 -42
212 -41 -42
213 -41 -42
214 -41 -42
215 35 15
216 35 15
217 -40 -12
218 -40 -12
219 -40 -12
220 -40 -12
221 -40 -12
222 -40 -12
223 14 33
224 33 -8
225 33 -8
226 29 17
227 29 17
228 29 17
229 29 17
230 29 17
231 33 -29
232 33 -29
233 33 -29
234 33 -29
235 33 -29
236 27 47
237 27 47
238 27 47
239 27 47
240 5 -13
241 5 -13
242 -22 -7
243 -22 -7
244 -22 -7
245 -22 38
246 -22 38
247 -22 38
248 28 45
249 28 45
250 28 45
251 41 26
252 41 26
253 41 26
254 41 26
255 41 26
256 41 26
257 41 26
258 -10 15
259 -10 15
260 -10 15
261 -10 15
262 -10 15
263 -30 49
264 -30 49
265 -30 49
266 20 39
267 20 39
268 20 39
269 -22 -40
270 -22 -40
DEMAND_SECTION
1 0
2 100
3 10
4 10
5 200
6 50
7 200
8 200
9 50
10 10
11 10
12 200
13 200
14 10
15 10
16 200
17 100
18 10
19 10
20 10
21 200
22 100
23 10
24 10
25 100
26 50
27 10
28 10
29 200
30 200
31 200
32 50
33 10
34 10
35 10
36 200
37 10
38 10
39 200
40 200
41 100
42 10
43 10
44 10
45 10
46 200
47 10
48 10
49 10
50 10
51 200
52 100
53 50
54 200
55 200
56 50
57 200
58 50
59 200
60 200
61 100
62 10
63 10
64 10
65 100
66 50
67 200
68 10
69 200
70 100
71 50
72 100
73 50
74 10
75 200
76 200
77 50
78 10
79 10
80 200
81 50
82 10
83 200
84 100
85 50
86 10
87 10
88 10
89 200
90 100
91 10
92 10
93 10
94 100
95 50
96 10
97 200
98 200
99 200
100 50
101 200
102 50
103 200
104 100
105 50
106 10
107 10
108 200
109 100
110 50
111 10
112 10
113 100
114 10
115 10
116 10
117 10
118 200
119 200
120 50
121 10
122 10
123 10
124 100
125 10
126 10
127 100
128 50
129 10
130 200
131 100
132 50
133 200
134 100
135 200
136 50
137 10
138 10
139 10
140 10
141 200
142 200
143 10
144 10
145 10
146 10
147 100
148 50
149 100
150 10
151 10
152 100
153 10
154 10
155 10
156 100
157 50
158 10
159 10
160 10
161 100
162 10
163 10
164 10
165 100
166 10
167 10
168 10
169 10
170 200
171 50
172 10
173 10
174 200
175 100
176 50
177 100
178 50
179 10
180 200
181 100
182 10
183 10
184 10
185 10
186 200
187 50
188 10
189 10
190 200
191 10
192 10
193 100
194 50
195 200
196 50
197 10
198 10
199 200
200 50
201 200
202 200
203 50
204 10
205 10
206 10
207 10
208 200
209 200
210 50
211 10
212 10
213 10
214 10
215 200
216 50
217 200
218 200
219 10
220 10
221 10
222 10
223 200
224 200
225 100
226 100
227 10
228 10
229 10
230 10
231 200
232 10
233 10
234 10
235 10
236 200
237 10
238 10
239 10
240 200
241 100
242 200
243 200
244 100
245 200
246 200
247 100
248 100
249 50
250 10
251 200
252 200
253 50
254 10
255 10
256 10
257 10
258 200
259 100
260 50
261 10
262 10
263 200
264 100
265 10
266 100
267 10
268 10
269 100
270 50
DEPOT_SECTION
1
-1
EOF