Normalized Data/p02_19_normalized_splitx10_0.sol
269 -11 14 -12 13 -17 16 19 15 18 93 95 94 37 35 36 261 257 260 259 -24 26 25 27 262 264 263 246 244 245 -28 50 52 51 110 111 107 109 108 -32 34 33 31 30 129 131 130 91 92 90 88 89 -42 43 40 41 44 62 60 5 4 213 209 210 208 207 212 211 -53 54 38 39 96 -57 56 101 100 20 21 23 22 192 193 -61 63 194 195 196 197 47 48 45 46 49 268 269 140 178 176 -64 65 84 82 85 83 6 8 9 10 7 267 266 -76 75 74 77 78 97 99 98 -104 105 102 106 103 55 190 189 191 72 73 71 222 -124 123 125 117 121 119 120 118 122 133 132 258 -127 128 126 59 70 68 69 58 177 -136 135 137 138 139 134 241 242 243 -146 147 81 80 79 67 66 29 151 152 154 153 -150 148 149 1 3 2 163 160 161 162 158 155 156 157 159 216 220 221 217 218 219 -167 166 164 165 168 182 179 181 183 180 184 248 247 249 237 236 238 235 86 87 265 -170 172 171 169 141 144 145 143 142 202 203 204 201 200 205 206 -175 173 174 224 223 240 239 -198 199 112 114 113 115 116 187 188 185 186 232 233 234 231 230 -214 215 250 255 256 254 253 251 252 229 227 226 228 225 0 





OBJ=
2164.517
BEST_KNOWN=
0.000